6 10 120
3 5 1 3 1 6 4 6 22 22 62 90 120 
1 1 1 42 74 
2 6 1 2 1 6 26 26 62 
2 5 2 3 2 24 44 76 96 
2 6 2 4 1 34 64 64 94 
2 5 3 1 2 52 82 82 112 
2 2 2 4 2 70 100 100 120 
2 6 3 5 4 66 82 86 120 
14 5 1 3 1 3 1 5 2 1 1 1 1 4 1 4 1 6 3 1 2 1 2 5 4 4 2 4 2 0 6 6 14 14 20 22 24 24 34 34 42 42 48 48 58 64 66 70 74 74 78 82 86 92 94 94 98 
12 6 1 2 1 2 1 6 2 5 3 5 3 2 2 2 2 3 2 3 2 6 4 6 4 0 6 6 18 18 24 26 34 38 44 44 52 52 62 62 70 70 74 74 76 76 84 84 90 
